(declare-const x0 Real)
(assert (<= 0.100000 x0))
(declare-const x1 Real)
(assert (<= 0.100000 x1))
(declare-const x2 Real)
(assert (<= 0.100000 x2))
(declare-const x3 Real)
(assert (<= 0.000100 x3))
(declare-const x4 Real)
(assert (<= 0.100000 x4))
(declare-const x5 Real)
(assert (<= 0.100000 x5))
(declare-const x6 Real)
(assert (<= 0.100000 x6))
(declare-const x7 Real)
(assert (<= 0.100000 x7))
(declare-const x8 Real)
(assert (<= 500.0 x8))
(declare-const x9 Real)
(assert (<= 0.100000 x9))
(declare-const x10 Real)
(assert (<= 1.0 x10))
(declare-const x11 Real)
(assert (<= 0.000100 x11))
(declare-const x12 Real)
(assert (<= 0.000100 x12))

(assert (<= 0.0 (+ (* (- 1.262626) x9) (* 1.0 x12) (* (* 1.231059 x2) x9))))
(assert (<= 0.0 (+ (* (- 0.034750) x1) (* 1.0 x4) (- (* 0.009750 (^ x1 2.0)) (* (* 0.975000 x1) x4)))))
(assert (<= 0.0 (+ (* (- 0.034750) x2) (* 1.0 x5) (- (* 0.009750 (^ x2 2.0)) (* (* 0.975000 x2) x5)))))
(assert (<= 0.0 (+ (* (- 0.034750) x0) (* 1.0 x3) (- (* 0.009750 (^ x0 2.0)) (* (* 0.975000 x0) x3)))))
(assert (<= 0.0 (+ (* (- 1.262626) x8) (* 1.0 x11) (* (* 1.231059 x1) x8))))
(assert (<= 0.0 (+ (* (- 1.262626) x7) (* 1.0 x10) (* (* 1.231059 x0) x7))))
(assert (<= 0.0 (+ (* x4 x6) (- (* x0 x7)) (- (* x3 x6)) (* x3 x7))))
(assert (<= (- 1.0) (+ (* (- 1.0) x4) (* (- 1.0) x5) (+ (* (- 0.002000) (* x1 x8)) (* (- 0.002000) (* x4 x7)) (* 0.002000 (* x0 x7)) (* 0.002000 (* x5 x8))))))
(assert (<= 0.0 (+ (* (- 500.0) x1) (* 500.0 x5) (+ (* x1 x8) (- (* x2 x9)) (- (* x5 x8)) (* x1 x9)))))
(assert (<= 0.900000 (+ (* 1.0 x1) (+ (* (- 0.002000) (* x1 x9)) (* 0.002000 (* x2 x9))))))
(assert (<= 0.0 (+ (* (- 1.0) x1) (* 1.0 x2))))
(assert (<= 0.0 (+ (* (- 1.0) x0) (* 1.0 x1))))
(assert (<= (- 1.0) (+ (* (- 0.002000) x6) (* 0.002000 x7))))
(assert (<= 50.0 (+ (* 1.0 x10) (* 1.0 x11) (* 1.0 x12))))
(assert (<= (+ (* 1.0 x10) (* 1.0 x11) (* 1.0 x12)) 250.0))

(minimize
	(+ (* 1.0 x10) (* 1.0 x11) (* 1.0 x12))
)
(check-sat)
(get-objectives)
(exit)

